sing20220612.00
TTAA  62001 48698
99007 26437 29503 00099 25824 29506 92787 22632 26518
85519 18232 24010 70158 08613 02502 50586 05950 11518
40759 14964 11014 30970 30758 11014 25097 40763 09523
20244 53322 07023 15423 69756 08521 10654 82347 08547
88999
77999=
TTCC  62007 48698
70860 69966 13518
88971 83541 09043
77999=
TTDD  6200/ 48698
11971 83541 22901 82550 33880 78158 44855 75159 55795 74959
66764 73162 77748 69166 88628 70571 99605 68972
21212 11807 07043 22771 08543 33715 13518 44691 13516 55651
08512 66605 09035=
